c defined variables: 13 25 29 33 37 41 45 49 53 57 61 65 69 73 77 81 85 89 93 97 101 105 109 113 126 136 140 144 148 152 156 160 164 168 172 188 192 196 200 204 208 212 216 220 224 228 233 234 236 237 238 249 250 256 261 262 264 265 266 271 272 277 278 283 284 289 290 295 296 301 308 309 311 312 313 315 316 318 319 320 321 323 324 329 330 332 333 335 336 338 339 340 342 343 345 346 347 348 350 351 353 354 355 357 358 360 361 362 363 364 365 368 369 371 372 373 375 376 378 379 380 381 385 386 387 388 389 390 391 392 393 394 395 396 397 398 400 401 402 404 405 406 407 408 409 410 411 412 413 414 415 416 417 418 419 420 421 422 423 424 425 426 427 428 429 430 431 432 433 434 435 436 437 438 439 440 441 442 443 444 445 446 447 449 450 451 452 453 454 455 456 457 458 459 460 461 462 463 464 465 466 467 468 469 470 471 472 473 474 475 476 477 478 479 480 481 482 483 485 
p cnf 1637 1995
a 241 247 231 227 68 72 56 64 48 60 40 52 32 44 276 232 259 337 341 344 349 352 356 359 270 269 255 281 275 300 377 367 263 374 370 248 235 260 448 20 36 4 8 24 16 1 28 12 294 5 282 288 21 2 9 17 244 287 293 299 304 184 181 167 171 178 175 151 155 159 163 328 334 310 314 307 399 403 317 322 191 199 187 195 215 211 203 207 219 223 104 96 100 92 88 84 76 80 112 108 122 135 129 132 116 139 125 119 147 143 0
e 3 6 7 10 11 14 15 18 19 22 23 26 27 30 31 34 35 38 39 42 43 46 47 50 51 54 55 58 59 62 63 66 67 70 71 74 75 78 79 82 83 86 87 90 91 94 95 98 99 102 103 106 107 110 111 114 115 117 118 120 121 123 124 127 128 130 131 133 134 137 138 141 142 145 146 149 150 153 154 157 158 161 162 165 166 169 170 173 174 176 177 179 180 182 183 185 186 189 190 193 194 197 198 201 202 205 206 209 210 213 214 217 218 221 222 225 226 229 230 239 240 242 243 245 246 252 253 254 257 258 267 268 273 274 279 280 285 286 291 292 297 298 302 303 305 306 326 331 383 384 484 13 25 29 33 37 41 45 49 53 57 61 65 69 73 77 81 85 89 93 97 101 105 109 113 126 136 140 144 148 152 156 160 164 168 172 188 192 196 200 204 208 212 216 220 224 228 233 234 236 237 238 249 250 256 261 262 264 265 266 271 272 277 278 283 284 289 290 295 296 301 308 309 311 312 313 315 316 318 319 320 321 323 324 329 330 332 333 335 336 338 339 340 342 343 345 346 347 348 350 351 353 354 355 357 358 360 361 362 363 364 365 368 369 371 372 373 375 376 378 379 380 381 385 386 387 388 389 390 391 392 393 394 395 396 397 398 400 401 402 404 405 406 407 408 409 410 411 412 413 414 415 416 417 418 419 420 421 422 423 424 425 426 427 428 429 430 431 432 433 434 435 436 437 438 439 440 441 442 443 444 445 446 447 449 450 451 452 453 454 455 456 457 458 459 460 461 462 463 464 465 466 467 468 469 470 471 472 473 474 475 476 477 478 479 480 481 482 483 485 1434 1435 1436 1437 1438 1439 1440 1441 1442 1443 1444 1445 1446 1447 1448 1449 1450 1451 1452 1453 1454 1455 1456 1457 1458 1459 1460 1461 1462 1463 1464 1465 1466 1467 1468 1469 1470 1471 1472 1473 1474 1475 1476 1477 1478 1479 1480 1481 1482 1483 1484 1485 1486 1487 1488 1489 1490 1491 1492 1493 1494 1495 1496 1497 1498 1499 1500 1501 1502 1503 1504 1505 1506 1507 1508 1509 1510 1511 1512 1513 1514 1515 1516 1517 1518 1519 1520 1521 1522 1523 1524 1525 1526 1527 1528 1529 1530 1531 1532 1533 1534 1535 1536 1537 1538 1539 1540 1541 1542 1543 1544 1545 1546 1547 1548 1549 1550 1551 1552 1553 1554 1555 1556 1557 1558 1559 1560 1561 1562 1563 1564 1565 1566 1567 1568 1569 1570 1571 1572 1573 1574 1575 1576 1577 1578 1579 1580 1581 1582 1583 1584 1585 1586 1587 1588 1589 1590 1591 1592 1593 1594 1595 1596 1597 1598 1599 1600 1601 1602 1603 1604 1605 1606 1607 1608 1609 1610 1611 1612 1613 1614 1615 1616 1617 1618 1619 1620 1621 1622 1623 1624 1625 1626 1627 1628 1629 1630 1631 1632 1633 1634 1635 1636 1637 0
d 325 178 175 399 2 0
d 366 247 231 275 269 259 0
d 327 2 184 403 181 0
d 382 287 293 281 304 299 0
d 251 241 5 244 2 448 0
1435 -13 0
-1435 13 0
1436 -25 0
-1436 25 0
1437 -29 0
-1437 29 0
1438 -33 0
-1438 33 0
1439 -37 0
-1439 37 0
1440 -41 0
-1440 41 0
1441 -45 0
-1441 45 0
1442 -49 0
-1442 49 0
1443 -53 0
-1443 53 0
1444 -57 0
-1444 57 0
1445 -61 0
-1445 61 0
1446 -65 0
-1446 65 0
1447 -69 0
-1447 69 0
1448 -73 0
-1448 73 0
1449 -77 0
-1449 77 0
1450 -81 0
-1450 81 0
1451 -85 0
-1451 85 0
1452 -89 0
-1452 89 0
1453 -93 0
-1453 93 0
1454 -97 0
-1454 97 0
1455 -101 0
-1455 101 0
1456 -105 0
-1456 105 0
1457 -109 0
-1457 109 0
1458 -113 0
-1458 113 0
1459 -126 0
-1459 126 0
1460 -136 0
-1460 136 0
1461 -140 0
-1461 140 0
1462 -144 0
-1462 144 0
1463 -148 0
-1463 148 0
1464 -152 0
-1464 152 0
1465 -156 0
-1465 156 0
1442 -160 0
-1442 160 0
1466 -164 0
-1466 164 0
1467 -168 0
-1467 168 0
1468 -172 0
-1468 172 0
1469 -188 0
-1469 188 0
1470 -192 0
-1470 192 0
1471 -196 0
-1471 196 0
1472 -200 0
-1472 200 0
1473 -204 0
-1473 204 0
1474 -208 0
-1474 208 0
1454 -212 0
-1454 212 0
1475 -216 0
-1475 216 0
1476 -220 0
-1476 220 0
1477 -224 0
-1477 224 0
1478 -228 0
-1478 228 0
1479 -233 0
-1479 233 0
1480 -234 0
-1480 234 0
1481 -236 0
-1481 236 0
1482 -237 0
-1482 237 0
-1483 -238 0
1483 238 0
1484 -249 0
-1484 249 0
1485 -250 0
-1485 250 0
1486 -256 0
-1486 256 0
1487 -261 0
-1487 261 0
1488 -262 0
-1488 262 0
1489 -264 0
-1489 264 0
1490 -265 0
-1490 265 0
-1491 -266 0
1491 266 0
1492 -271 0
-1492 271 0
1493 -272 0
-1493 272 0
1494 -277 0
-1494 277 0
1495 -278 0
-1495 278 0
1496 -283 0
-1496 283 0
1497 -284 0
-1497 284 0
-1500 -289 0
1500 289 0
1501 -290 0
-1501 290 0
1502 -295 0
-1502 295 0
1503 -296 0
-1503 296 0
1504 -301 0
-1504 301 0
1505 -308 0
-1505 308 0
1506 -309 0
-1506 309 0
1507 -311 0
-1507 311 0
1508 -312 0
-1508 312 0
-1509 -313 0
1509 313 0
1510 -315 0
-1510 315 0
1511 -316 0
-1511 316 0
1512 -318 0
-1512 318 0
1513 -319 0
-1513 319 0
-1514 -320 0
1514 320 0
-1515 -321 0
1515 321 0
1516 -323 0
-1516 323 0
1517 -324 0
-1517 324 0
1518 -329 0
-1518 329 0
1519 -330 0
-1519 330 0
-1520 -332 0
1520 332 0
-1521 -333 0
1521 333 0
1522 -335 0
-1522 335 0
1523 -336 0
-1523 336 0
1524 -338 0
-1524 338 0
1525 -339 0
-1525 339 0
-1526 -340 0
1526 340 0
1527 -342 0
-1527 342 0
1528 -343 0
-1528 343 0
1529 -345 0
-1529 345 0
1530 -346 0
-1530 346 0
-1531 -347 0
1531 347 0
-1532 -348 0
1532 348 0
1533 -350 0
-1533 350 0
1534 -351 0
-1534 351 0
1535 -353 0
-1535 353 0
1536 -354 0
-1536 354 0
-1537 -355 0
1537 355 0
1538 -357 0
-1538 357 0
1539 -358 0
-1539 358 0
1540 -360 0
-1540 360 0
1541 -361 0
-1541 361 0
-1542 -362 0
1542 362 0
-1543 -363 0
1543 363 0
-1544 -364 0
1544 364 0
-1545 -365 0
1545 365 0
1546 -368 0
-1546 368 0
1547 -369 0
-1547 369 0
1548 -371 0
-1548 371 0
1549 -372 0
-1549 372 0
-1550 -373 0
1550 373 0
1551 -375 0
-1551 375 0
1552 -376 0
-1552 376 0
1553 -378 0
-1553 378 0
1554 -379 0
-1554 379 0
-1555 -380 0
1555 380 0
-1556 -381 0
1556 381 0
-1557 -385 0
1557 385 0
1558 -386 0
-1558 386 0
1559 -387 0
-1559 387 0
1560 -388 0
-1560 388 0
1561 -389 0
-1561 389 0
-1562 -390 0
1562 390 0
1563 -391 0
-1563 391 0
1564 -392 0
-1564 392 0
1565 -393 0
-1565 393 0
1566 -394 0
-1566 394 0
-1567 -395 0
1567 395 0
-1568 -396 0
1568 396 0
1569 -397 0
-1569 397 0
1570 -398 0
-1570 398 0
1571 -400 0
-1571 400 0
1572 -401 0
-1572 401 0
-1573 -402 0
1573 402 0
1574 -404 0
-1574 404 0
1575 -405 0
-1575 405 0
1576 -406 0
-1576 406 0
1577 -407 0
-1577 407 0
-1578 -408 0
1578 408 0
-1579 -409 0
1579 409 0
-1580 -410 0
1580 410 0
1581 -411 0
-1581 411 0
1582 -412 0
-1582 412 0
1583 -413 0
-1583 413 0
1584 -414 0
-1584 414 0
-1585 -415 0
1585 415 0
1586 -416 0
-1586 416 0
1587 -417 0
-1587 417 0
1588 -418 0
-1588 418 0
1589 -419 0
-1589 419 0
-1590 -420 0
1590 420 0
-1591 -421 0
1591 421 0
1592 -422 0
-1592 422 0
1593 -423 0
-1593 423 0
1594 -424 0
-1594 424 0
1595 -425 0
-1595 425 0
-1596 -426 0
1596 426 0
1597 -427 0
-1597 427 0
1598 -428 0
-1598 428 0
1599 -429 0
-1599 429 0
1600 -430 0
-1600 430 0
-1601 -431 0
1601 431 0
-1602 -432 0
1602 432 0
-1603 -433 0
1603 433 0
-1604 -434 0
1604 434 0
1492 -435 0
-1492 435 0
1605 -436 0
-1605 436 0
1494 -437 0
-1494 437 0
1606 -438 0
-1606 438 0
-1607 -439 0
1607 439 0
1479 -440 0
-1479 440 0
1608 -441 0
-1608 441 0
1481 -442 0
-1481 442 0
1609 -443 0
-1609 443 0
-1610 -444 0
1610 444 0
-1611 -445 0
1611 445 0
1484 -446 0
-1484 446 0
1612 -447 0
-1612 447 0
1613 -449 0
-1613 449 0
1614 -450 0
-1614 450 0
-1615 -451 0
1615 451 0
1487 -452 0
-1487 452 0
1616 -453 0
-1616 453 0
1489 -454 0
-1489 454 0
1617 -455 0
-1617 455 0
-1618 -456 0
1618 456 0
-1619 -457 0
1619 457 0
-1620 -458 0
1620 458 0
1546 -459 0
-1546 459 0
1621 -460 0
-1621 460 0
1548 -461 0
-1548 461 0
1622 -462 0
-1622 462 0
-1623 -463 0
1623 463 0
1551 -464 0
-1551 464 0
1624 -465 0
-1624 465 0
1553 -466 0
-1553 466 0
1625 -467 0
-1625 467 0
-1626 -468 0
1626 468 0
-1627 -469 0
1627 469 0
1504 -470 0
-1504 470 0
1628 -471 0
-1628 471 0
1496 -472 0
-1496 472 0
1629 -473 0
-1629 473 0
-1630 -474 0
1630 474 0
1498 -475 0
-1498 475 0
1631 -476 0
-1631 476 0
1502 -477 0
-1502 477 0
1632 -478 0
-1632 478 0
-1633 -479 0
1633 479 0
-1634 -480 0
1634 480 0
-1635 -481 0
1635 481 0
-1636 -482 0
1636 482 0
-1637 -483 0
1637 483 0
1434 -485 0
-1434 485 0
485 0
-485 306 484 0
-306 303 -305 0
-303 298 -302 0
-298 292 -297 0
-292 286 -291 0
-286 280 -285 0
-280 274 -279 0
-274 268 -273 0
-268 258 -267 0
-258 254 -257 0
-254 246 -253 0
-246 243 -245 0
-243 240 -242 0
-240 230 -239 0
-230 226 -229 0
-226 222 -225 0
-222 218 -221 0
-218 214 -217 0
-214 210 -213 0
-210 206 -209 0
-206 202 -205 0
-202 198 -201 0
-198 194 -197 0
-194 190 -193 0
-190 186 -189 0
-186 183 -185 0
-183 180 -182 0
-180 177 -179 0
-177 174 -176 0
-174 170 -173 0
-170 166 -169 0
-166 162 -165 0
-162 158 -161 0
-158 154 -157 0
-154 150 -153 0
-150 146 -149 0
-146 142 -145 0
-142 138 -141 0
-138 134 -137 0
-134 131 -133 0
-131 128 -130 0
-128 124 -127 0
-124 121 -123 0
-121 118 -120 0
-118 115 -117 0
-115 111 -114 0
-111 107 -110 0
-107 103 -106 0
-103 99 -102 0
-99 95 -98 0
-95 91 -94 0
-91 87 -90 0
-87 83 -86 0
-83 79 -82 0
-79 75 -78 0
-75 71 -74 0
-71 67 -70 0
-67 63 -66 0
-63 59 -62 0
-59 55 -58 0
-55 51 -54 0
-51 47 -50 0
-47 43 -46 0
-43 39 -42 0
-39 35 -38 0
-35 31 -34 0
-31 27 -30 0
-27 23 -26 0
-23 19 -22 0
-19 15 -18 0
-15 11 -14 0
-11 7 -10 0
-7 -3 -6 0
1 -2 3 0
-1 2 3 0
4 -5 6 0
-4 5 6 0
8 -9 10 0
-8 9 10 0
12 13 14 0
-12 -13 14 0
-4 -8 13 0
-13 4 0
-13 8 0
16 -17 18 0
-16 17 18 0
20 -21 22 0
-20 21 22 0
24 25 26 0
-24 -25 26 0
-16 -20 25 0
-25 16 0
-25 20 0
28 29 30 0
-28 -29 30 0
-12 -24 29 0
-29 12 0
-29 24 0
32 33 34 0
-32 -33 34 0
-5 -8 33 0
-33 5 0
-33 8 0
36 37 38 0
-36 -37 38 0
-32 -24 37 0
-37 32 0
-37 24 0
40 41 42 0
-40 -41 42 0
-4 -9 41 0
-41 4 0
-41 9 0
44 45 46 0
-44 -45 46 0
-40 -24 45 0
-45 40 0
-45 24 0
48 49 50 0
-48 -49 50 0
-5 -9 49 0
-49 5 0
-49 9 0
52 53 54 0
-52 -53 54 0
-48 -24 53 0
-53 48 0
-53 24 0
56 57 58 0
-56 -57 58 0
-17 -20 57 0
-57 17 0
-57 20 0
60 61 62 0
-60 -61 62 0
-12 -56 61 0
-61 12 0
-61 56 0
64 65 66 0
-64 -65 66 0
-32 -56 65 0
-65 32 0
-65 56 0
68 69 70 0
-68 -69 70 0
-40 -56 69 0
-69 40 0
-69 56 0
72 73 74 0
-72 -73 74 0
-48 -56 73 0
-73 48 0
-73 56 0
76 77 78 0
-76 -77 78 0
-16 -21 77 0
-77 16 0
-77 21 0
80 81 82 0
-80 -81 82 0
-12 -76 81 0
-81 12 0
-81 76 0
84 85 86 0
-84 -85 86 0
-32 -76 85 0
-85 32 0
-85 76 0
88 89 90 0
-88 -89 90 0
-40 -76 89 0
-89 40 0
-89 76 0
92 93 94 0
-92 -93 94 0
-48 -76 93 0
-93 48 0
-93 76 0
96 97 98 0
-96 -97 98 0
-17 -21 97 0
-97 17 0
-97 21 0
100 101 102 0
-100 -101 102 0
-12 -96 101 0
-101 12 0
-101 96 0
104 105 106 0
-104 -105 106 0
-32 -96 105 0
-105 32 0
-105 96 0
108 109 110 0
-108 -109 110 0
-40 -96 109 0
-109 40 0
-109 96 0
112 113 114 0
-112 -113 114 0
-48 -96 113 0
-113 48 0
-113 96 0
116 -2 117 0
-116 2 117 0
119 -5 120 0
-119 5 120 0
122 -9 123 0
-122 9 123 0
125 126 127 0
-125 -126 127 0
-119 -122 126 0
-126 119 0
-126 122 0
129 -17 130 0
-129 17 130 0
132 -21 133 0
-132 21 133 0
135 136 137 0
-135 -136 137 0
-129 -132 136 0
-136 129 0
-136 132 0
139 140 141 0
-139 -140 141 0
-125 -135 140 0
-140 125 0
-140 135 0
143 144 145 0
-143 -144 145 0
-5 -122 144 0
-144 5 0
-144 122 0
147 148 149 0
-147 -148 149 0
-143 -135 148 0
-148 143 0
-148 135 0
151 152 153 0
-151 -152 153 0
-119 -9 152 0
-152 119 0
-152 9 0
155 156 157 0
-155 -156 157 0
-151 -135 156 0
-156 151 0
-156 135 0
159 160 161 0
-159 -160 161 0
-5 -9 160 0
-160 5 0
-160 9 0
163 164 165 0
-163 -164 165 0
-159 -135 164 0
-164 159 0
-164 135 0
167 168 169 0
-167 -168 169 0
-17 -132 168 0
-168 17 0
-168 132 0
171 172 173 0
-171 -172 173 0
-125 -167 172 0
-172 125 0
-172 167 0
175 143 176 0
-175 -143 176 0
178 167 179 0
-178 -167 179 0
181 151 182 0
-181 -151 182 0
184 167 185 0
-184 -167 185 0
187 188 189 0
-187 -188 189 0
-159 -167 188 0
-188 159 0
-188 167 0
191 192 193 0
-191 -192 193 0
-129 -21 192 0
-192 129 0
-192 21 0
195 196 197 0
-195 -196 197 0
-125 -191 196 0
-196 125 0
-196 191 0
199 200 201 0
-199 -200 201 0
-143 -191 200 0
-200 143 0
-200 191 0
203 204 205 0
-203 -204 205 0
-151 -191 204 0
-204 151 0
-204 191 0
207 208 209 0
-207 -208 209 0
-159 -191 208 0
-208 159 0
-208 191 0
211 212 213 0
-211 -212 213 0
-17 -21 212 0
-212 17 0
-212 21 0
215 216 217 0
-215 -216 217 0
-125 -211 216 0
-216 125 0
-216 211 0
219 220 221 0
-219 -220 221 0
-143 -211 220 0
-220 143 0
-220 211 0
223 224 225 0
-223 -224 225 0
-151 -211 224 0
-224 151 0
-224 211 0
227 228 229 0
-227 -228 229 0
-159 -211 228 0
-228 159 0
-228 211 0
231 238 239 0
-231 -238 239 0
-234 237 238 0
234 -237 238 0
-234 -237 238 0
-233 -155 234 0
-2 -232 233 0
-236 -163 237 0
-2 -235 236 0
-238 234 237 0
-234 233 0
-234 155 0
-233 2 0
-233 232 0
-237 236 0
-237 163 0
-236 2 0
-236 235 0
241 167 242 0
-241 -167 242 0
244 122 245 0
-244 -122 245 0
247 252 253 0
-247 -252 253 0
-250 251 252 0
250 -251 252 0
-250 -251 252 0
-249 -171 250 0
-2 -248 249 0
-252 250 251 0
-250 249 0
-250 171 0
-249 2 0
-249 248 0
255 256 257 0
-255 -256 257 0
-151 -167 256 0
-256 151 0
-256 167 0
259 266 267 0
-259 -266 267 0
-262 265 266 0
262 -265 266 0
-262 -265 266 0
-261 -255 262 0
-2 -260 261 0
-264 -187 265 0
-2 -263 264 0
-266 262 265 0
-262 261 0
-262 255 0
-261 2 0
-261 260 0
-265 264 0
-265 187 0
-264 2 0
-264 263 0
269 272 273 0
-269 -272 273 0
-271 -139 272 0
-2 -270 271 0
-272 271 0
-272 139 0
-271 2 0
-271 270 0
275 278 279 0
-275 -278 279 0
-277 -147 278 0
-2 -276 277 0
-278 277 0
-278 147 0
-277 2 0
-277 276 0
281 284 285 0
-281 -284 285 0
-283 -219 284 0
-2 -282 283 0
-284 283 0
-284 219 0
-283 2 0
-283 282 0
287 290 291 0
-287 -290 291 0
289 -223 290 0
-289 -2 288 0
-289 2 -288 0
-290 -289 0
-290 223 0
2 288 289 0
-2 -288 289 0
293 296 297 0
-293 -296 297 0
-295 -227 296 0
-2 -294 295 0
-296 295 0
-296 227 0
-295 2 0
-295 294 0
299 301 302 0
-299 -301 302 0
-2 -300 301 0
-301 2 0
-301 300 0
304 215 305 0
-304 -215 305 0
-484 -385 483 0
-484 385 -483 0
-385 365 384 0
-365 333 364 0
-333 321 332 0
-321 313 320 0
-313 309 312 0
-309 308 0
-309 139 0
-308 116 0
-308 307 0
-312 311 0
-312 147 0
-311 116 0
-311 310 0
-320 316 319 0
-316 315 0
-316 155 0
-315 116 0
-315 314 0
-319 318 0
-319 163 0
-318 116 0
-318 317 0
-332 326 331 0
-326 324 325 0
-324 323 0
-324 171 0
-323 116 0
-323 322 0
-331 327 330 0
-330 329 0
-330 187 0
-329 116 0
-329 328 0
-364 348 363 0
-348 340 347 0
-340 336 339 0
-336 335 0
-336 195 0
-335 116 0
-335 334 0
-339 338 0
-339 199 0
-338 116 0
-338 337 0
-347 343 346 0
-343 342 0
-343 203 0
-342 116 0
-342 341 0
-346 345 0
-346 207 0
-345 116 0
-345 344 0
-363 355 362 0
-355 351 354 0
-351 350 0
-351 215 0
-350 116 0
-350 349 0
-354 353 0
-354 219 0
-353 116 0
-353 352 0
-362 358 361 0
-358 357 0
-358 223 0
-357 116 0
-357 356 0
-361 360 0
-361 227 0
-360 116 0
-360 359 0
-384 366 383 0
-383 381 382 0
-381 373 380 0
-373 369 372 0
-369 368 0
-369 195 0
-368 2 0
-368 367 0
-372 371 0
-372 199 0
-371 2 0
-371 370 0
-380 376 379 0
-376 375 0
-376 203 0
-375 2 0
-375 374 0
-379 378 0
-379 207 0
-378 2 0
-378 377 0
-483 434 482 0
-434 410 433 0
-410 396 409 0
-396 390 395 0
-390 387 389 0
-387 386 0
-387 28 0
-386 1 0
-386 307 0
-389 388 0
-389 36 0
-388 1 0
-388 310 0
-395 392 394 0
-392 391 0
-392 44 0
-391 1 0
-391 314 0
-394 393 0
-394 52 0
-393 1 0
-393 317 0
-409 402 408 0
-402 398 401 0
-398 397 0
-398 60 0
-397 1 0
-397 322 0
-401 400 0
-401 64 0
-400 1 0
-400 399 0
-408 405 407 0
-405 404 0
-405 68 0
-404 1 0
-404 403 0
-407 406 0
-407 72 0
-406 1 0
-406 328 0
-433 421 432 0
-421 415 420 0
-415 412 414 0
-412 411 0
-412 80 0
-411 1 0
-411 334 0
-414 413 0
-414 84 0
-413 1 0
-413 337 0
-420 417 419 0
-417 416 0
-417 88 0
-416 1 0
-416 341 0
-419 418 0
-419 92 0
-418 1 0
-418 344 0
-432 426 431 0
-426 423 425 0
-423 422 0
-423 100 0
-422 1 0
-422 349 0
-425 424 0
-425 104 0
-424 1 0
-424 352 0
-431 428 430 0
-428 427 0
-428 108 0
-427 1 0
-427 356 0
-430 429 0
-430 112 0
-429 1 0
-429 359 0
-482 458 481 0
-458 445 457 0
-445 439 444 0
-439 436 438 0
-436 435 0
-436 28 0
-435 2 0
-435 270 0
-438 437 0
-438 36 0
-437 2 0
-437 276 0
-444 441 443 0
-441 440 0
-441 44 0
-440 2 0
-440 232 0
-443 442 0
-443 52 0
-442 2 0
-442 235 0
-457 451 456 0
-451 447 450 0
-447 446 0
-447 60 0
-446 2 0
-446 248 0
-450 449 0
-450 64 0
-449 2 0
-449 448 0
-456 453 455 0
-453 452 0
-453 68 0
-452 2 0
-452 260 0
-455 454 0
-455 72 0
-454 2 0
-454 263 0
-481 469 480 0
-469 463 468 0
-463 460 462 0
-460 459 0
-460 80 0
-459 2 0
-459 367 0
-462 461 0
-462 84 0
-461 2 0
-461 370 0
-468 465 467 0
-465 464 0
-465 88 0
-464 2 0
-464 374 0
-467 466 0
-467 92 0
-466 2 0
-466 377 0
-480 474 479 0
-474 471 473 0
-471 470 0
-471 100 0
-470 2 0
-470 300 0
-473 472 0
-473 104 0
-472 2 0
-472 282 0
-479 476 478 0
-476 475 0
-476 108 0
-475 2 0
-475 288 0
-478 477 0
-478 112 0
-477 2 0
-477 294 0
-365 384 385 0
365 -384 385 0
-365 -384 385 0
-333 364 365 0
333 -364 365 0
-333 -364 365 0
-321 332 333 0
321 -332 333 0
-321 -332 333 0
-313 320 321 0
313 -320 321 0
-313 -320 321 0
-309 312 313 0
309 -312 313 0
-309 -312 313 0
-308 -139 309 0
-116 -307 308 0
-311 -147 312 0
-116 -310 311 0
-316 319 320 0
316 -319 320 0
-316 -319 320 0
-315 -155 316 0
-116 -314 315 0
-318 -163 319 0
-116 -317 318 0
-326 331 332 0
326 -331 332 0
-326 -331 332 0
-324 325 326 0
324 -325 326 0
-324 -325 326 0
-323 -171 324 0
-116 -322 323 0
-327 330 331 0
327 -330 331 0
-327 -330 331 0
-329 -187 330 0
-116 -328 329 0
-348 363 364 0
348 -363 364 0
-348 -363 364 0
-340 347 348 0
340 -347 348 0
-340 -347 348 0
-336 339 340 0
336 -339 340 0
-336 -339 340 0
-335 -195 336 0
-116 -334 335 0
-338 -199 339 0
-116 -337 338 0
-343 346 347 0
343 -346 347 0
-343 -346 347 0
-342 -203 343 0
-116 -341 342 0
-345 -207 346 0
-116 -344 345 0
-355 362 363 0
355 -362 363 0
-355 -362 363 0
-351 354 355 0
351 -354 355 0
-351 -354 355 0
-350 -215 351 0
-116 -349 350 0
-353 -219 354 0
-116 -352 353 0
-358 361 362 0
358 -361 362 0
-358 -361 362 0
-357 -223 358 0
-116 -356 357 0
-360 -227 361 0
-116 -359 360 0
-366 383 384 0
366 -383 384 0
-366 -383 384 0
-381 382 383 0
381 -382 383 0
-381 -382 383 0
-373 380 381 0
373 -380 381 0
-373 -380 381 0
-369 372 373 0
369 -372 373 0
-369 -372 373 0
-368 -195 369 0
-2 -367 368 0
-371 -199 372 0
-2 -370 371 0
-376 379 380 0
376 -379 380 0
-376 -379 380 0
-375 -203 376 0
-2 -374 375 0
-378 -207 379 0
-2 -377 378 0
-434 482 483 0
434 -482 483 0
-434 -482 483 0
-410 433 434 0
410 -433 434 0
-410 -433 434 0
-396 409 410 0
396 -409 410 0
-396 -409 410 0
-390 395 396 0
390 -395 396 0
-390 -395 396 0
-387 389 390 0
387 -389 390 0
-387 -389 390 0
-386 -28 387 0
-1 -307 386 0
-388 -36 389 0
-1 -310 388 0
-392 394 395 0
392 -394 395 0
-392 -394 395 0
-391 -44 392 0
-1 -314 391 0
-393 -52 394 0
-1 -317 393 0
-402 408 409 0
402 -408 409 0
-402 -408 409 0
-398 401 402 0
398 -401 402 0
-398 -401 402 0
-397 -60 398 0
-1 -322 397 0
-400 -64 401 0
-1 -399 400 0
-405 407 408 0
405 -407 408 0
-405 -407 408 0
-404 -68 405 0
-1 -403 404 0
-406 -72 407 0
-1 -328 406 0
-421 432 433 0
421 -432 433 0
-421 -432 433 0
-415 420 421 0
415 -420 421 0
-415 -420 421 0
-412 414 415 0
412 -414 415 0
-412 -414 415 0
-411 -80 412 0
-1 -334 411 0
-413 -84 414 0
-1 -337 413 0
-417 419 420 0
417 -419 420 0
-417 -419 420 0
-416 -88 417 0
-1 -341 416 0
-418 -92 419 0
-1 -344 418 0
-426 431 432 0
426 -431 432 0
-426 -431 432 0
-423 425 426 0
423 -425 426 0
-423 -425 426 0
-422 -100 423 0
-1 -349 422 0
-424 -104 425 0
-1 -352 424 0
-428 430 431 0
428 -430 431 0
-428 -430 431 0
-427 -108 428 0
-1 -356 427 0
-429 -112 430 0
-1 -359 429 0
-458 481 482 0
458 -481 482 0
-458 -481 482 0
-445 457 458 0
445 -457 458 0
-445 -457 458 0
-439 444 445 0
439 -444 445 0
-439 -444 445 0
-436 438 439 0
436 -438 439 0
-436 -438 439 0
-435 -28 436 0
-2 -270 435 0
-437 -36 438 0
-2 -276 437 0
-441 443 444 0
441 -443 444 0
-441 -443 444 0
-440 -44 441 0
-2 -232 440 0
-442 -52 443 0
-2 -235 442 0
-451 456 457 0
451 -456 457 0
-451 -456 457 0
-447 450 451 0
447 -450 451 0
-447 -450 451 0
-446 -60 447 0
-2 -248 446 0
-449 -64 450 0
-2 -448 449 0
-453 455 456 0
453 -455 456 0
-453 -455 456 0
-452 -68 453 0
-2 -260 452 0
-454 -72 455 0
-2 -263 454 0
-469 480 481 0
469 -480 481 0
-469 -480 481 0
-463 468 469 0
463 -468 469 0
-463 -468 469 0
-460 462 463 0
460 -462 463 0
-460 -462 463 0
-459 -80 460 0
-2 -367 459 0
-461 -84 462 0
-2 -370 461 0
-465 467 468 0
465 -467 468 0
-465 -467 468 0
-464 -88 465 0
-2 -374 464 0
-466 -92 467 0
-2 -377 466 0
-474 479 480 0
474 -479 480 0
-474 -479 480 0
-471 473 474 0
471 -473 474 0
-471 -473 474 0
-470 -100 471 0
-2 -300 470 0
-472 -104 473 0
-2 -282 472 0
-476 478 479 0
476 -478 479 0
-476 -478 479 0
-475 -108 476 0
-2 -288 475 0
-477 -112 478 0
-2 -294 477 0
1434 0
4 -1435 0
8 -1435 0
-4 -8 1435 0
20 -1436 0
16 -1436 0
-20 -16 1436 0
24 -1437 0
12 -1437 0
-24 -12 1437 0
8 -1438 0
5 -1438 0
-8 -5 1438 0
32 -1439 0
24 -1439 0
-32 -24 1439 0
4 -1440 0
9 -1440 0
-4 -9 1440 0
40 -1441 0
24 -1441 0
-40 -24 1441 0
5 -1442 0
9 -1442 0
-5 -9 1442 0
48 -1443 0
24 -1443 0
-48 -24 1443 0
20 -1444 0
17 -1444 0
-20 -17 1444 0
56 -1445 0
12 -1445 0
-56 -12 1445 0
56 -1446 0
32 -1446 0
-56 -32 1446 0
56 -1447 0
40 -1447 0
-56 -40 1447 0
56 -1448 0
48 -1448 0
-56 -48 1448 0
16 -1449 0
21 -1449 0
-16 -21 1449 0
12 -1450 0
76 -1450 0
-12 -76 1450 0
32 -1451 0
76 -1451 0
-32 -76 1451 0
40 -1452 0
76 -1452 0
-40 -76 1452 0
48 -1453 0
76 -1453 0
-48 -76 1453 0
21 -1454 0
17 -1454 0
-21 -17 1454 0
12 -1455 0
96 -1455 0
-12 -96 1455 0
32 -1456 0
96 -1456 0
-32 -96 1456 0
40 -1457 0
96 -1457 0
-40 -96 1457 0
48 -1458 0
96 -1458 0
-48 -96 1458 0
122 -1459 0
119 -1459 0
-122 -119 1459 0
129 -1460 0
132 -1460 0
-129 -132 1460 0
135 -1461 0
125 -1461 0
-135 -125 1461 0
5 -1462 0
122 -1462 0
-5 -122 1462 0
135 -1463 0
143 -1463 0
-135 -143 1463 0
9 -1464 0
119 -1464 0
-9 -119 1464 0
151 -1465 0
135 -1465 0
-151 -135 1465 0
159 -1466 0
135 -1466 0
-159 -135 1466 0
17 -1467 0
132 -1467 0
-17 -132 1467 0
167 -1468 0
125 -1468 0
-167 -125 1468 0
167 -1469 0
159 -1469 0
-167 -159 1469 0
21 -1470 0
129 -1470 0
-21 -129 1470 0
191 -1471 0
125 -1471 0
-191 -125 1471 0
191 -1472 0
143 -1472 0
-191 -143 1472 0
151 -1473 0
191 -1473 0
-151 -191 1473 0
159 -1474 0
191 -1474 0
-159 -191 1474 0
211 -1475 0
125 -1475 0
-211 -125 1475 0
211 -1476 0
143 -1476 0
-211 -143 1476 0
151 -1477 0
211 -1477 0
-151 -211 1477 0
159 -1478 0
211 -1478 0
-159 -211 1478 0
232 -1479 0
2 -1479 0
-232 -2 1479 0
155 -1480 0
233 -1480 0
-155 -233 1480 0
235 -1481 0
2 -1481 0
-235 -2 1481 0
163 -1482 0
236 -1482 0
-163 -236 1482 0
-234 -1483 0
-237 -1483 0
234 237 1483 0
248 -1484 0
2 -1484 0
-248 -2 1484 0
171 -1485 0
249 -1485 0
-171 -249 1485 0
167 -1486 0
151 -1486 0
-167 -151 1486 0
260 -1487 0
2 -1487 0
-260 -2 1487 0
255 -1488 0
261 -1488 0
-255 -261 1488 0
263 -1489 0
2 -1489 0
-263 -2 1489 0
187 -1490 0
264 -1490 0
-187 -264 1490 0
-262 -1491 0
-265 -1491 0
262 265 1491 0
270 -1492 0
2 -1492 0
-270 -2 1492 0
139 -1493 0
271 -1493 0
-139 -271 1493 0
276 -1494 0
2 -1494 0
-276 -2 1494 0
147 -1495 0
277 -1495 0
-147 -277 1495 0
282 -1496 0
2 -1496 0
-282 -2 1496 0
219 -1497 0
283 -1497 0
-219 -283 1497 0
288 -1498 0
2 -1498 0
-288 -2 1498 0
-288 -1499 0
-2 -1499 0
288 2 1499 0
-1498 -1500 0
-1499 -1500 0
1498 1499 1500 0
223 -1501 0
-289 -1501 0
-223 289 1501 0
294 -1502 0
2 -1502 0
-294 -2 1502 0
227 -1503 0
295 -1503 0
-227 -295 1503 0
300 -1504 0
2 -1504 0
-300 -2 1504 0
307 -1505 0
116 -1505 0
-307 -116 1505 0
139 -1506 0
308 -1506 0
-139 -308 1506 0
310 -1507 0
116 -1507 0
-310 -116 1507 0
147 -1508 0
311 -1508 0
-147 -311 1508 0
-309 -1509 0
-312 -1509 0
309 312 1509 0
314 -1510 0
116 -1510 0
-314 -116 1510 0
155 -1511 0
315 -1511 0
-155 -315 1511 0
317 -1512 0
116 -1512 0
-317 -116 1512 0
163 -1513 0
318 -1513 0
-163 -318 1513 0
-316 -1514 0
-319 -1514 0
316 319 1514 0
-313 -1515 0
-320 -1515 0
313 320 1515 0
322 -1516 0
116 -1516 0
-322 -116 1516 0
171 -1517 0
323 -1517 0
-171 -323 1517 0
328 -1518 0
116 -1518 0
-328 -116 1518 0
187 -1519 0
329 -1519 0
-187 -329 1519 0
-326 -1520 0
-331 -1520 0
326 331 1520 0
-321 -1521 0
-332 -1521 0
321 332 1521 0
334 -1522 0
116 -1522 0
-334 -116 1522 0
195 -1523 0
335 -1523 0
-195 -335 1523 0
337 -1524 0
116 -1524 0
-337 -116 1524 0
199 -1525 0
338 -1525 0
-199 -338 1525 0
-336 -1526 0
-339 -1526 0
336 339 1526 0
341 -1527 0
116 -1527 0
-341 -116 1527 0
203 -1528 0
342 -1528 0
-203 -342 1528 0
344 -1529 0
116 -1529 0
-344 -116 1529 0
207 -1530 0
345 -1530 0
-207 -345 1530 0
-343 -1531 0
-346 -1531 0
343 346 1531 0
-340 -1532 0
-347 -1532 0
340 347 1532 0
349 -1533 0
116 -1533 0
-349 -116 1533 0
215 -1534 0
350 -1534 0
-215 -350 1534 0
352 -1535 0
116 -1535 0
-352 -116 1535 0
219 -1536 0
353 -1536 0
-219 -353 1536 0
-351 -1537 0
-354 -1537 0
351 354 1537 0
356 -1538 0
116 -1538 0
-356 -116 1538 0
223 -1539 0
357 -1539 0
-223 -357 1539 0
359 -1540 0
116 -1540 0
-359 -116 1540 0
227 -1541 0
360 -1541 0
-227 -360 1541 0
-358 -1542 0
-361 -1542 0
358 361 1542 0
-355 -1543 0
-362 -1543 0
355 362 1543 0
-348 -1544 0
-363 -1544 0
348 363 1544 0
-333 -1545 0
1544 -1545 0
333 -1544 1545 0
367 -1546 0
2 -1546 0
-367 -2 1546 0
195 -1547 0
368 -1547 0
-195 -368 1547 0
370 -1548 0
2 -1548 0
-370 -2 1548 0
199 -1549 0
371 -1549 0
-199 -371 1549 0
-369 -1550 0
-372 -1550 0
369 372 1550 0
374 -1551 0
2 -1551 0
-374 -2 1551 0
203 -1552 0
375 -1552 0
-203 -375 1552 0
377 -1553 0
2 -1553 0
-377 -2 1553 0
207 -1554 0
378 -1554 0
-207 -378 1554 0
-376 -1555 0
-379 -1555 0
376 379 1555 0
-373 -1556 0
1555 -1556 0
373 -1555 1556 0
-365 -1557 0
-384 -1557 0
365 384 1557 0
1 -1558 0
307 -1558 0
-1 -307 1558 0
28 -1559 0
386 -1559 0
-28 -386 1559 0
1 -1560 0
310 -1560 0
-1 -310 1560 0
36 -1561 0
388 -1561 0
-36 -388 1561 0
-387 -1562 0
-389 -1562 0
387 389 1562 0
1 -1563 0
314 -1563 0
-1 -314 1563 0
44 -1564 0
391 -1564 0
-44 -391 1564 0
1 -1565 0
317 -1565 0
-1 -317 1565 0
52 -1566 0
393 -1566 0
-52 -393 1566 0
-392 -1567 0
-394 -1567 0
392 394 1567 0
-390 -1568 0
-395 -1568 0
390 395 1568 0
1 -1569 0
322 -1569 0
-1 -322 1569 0
60 -1570 0
397 -1570 0
-60 -397 1570 0
1 -1571 0
399 -1571 0
-1 -399 1571 0
64 -1572 0
400 -1572 0
-64 -400 1572 0
-398 -1573 0
-401 -1573 0
398 401 1573 0
1 -1574 0
403 -1574 0
-1 -403 1574 0
68 -1575 0
404 -1575 0
-68 -404 1575 0
1 -1576 0
328 -1576 0
-1 -328 1576 0
72 -1577 0
406 -1577 0
-72 -406 1577 0
-405 -1578 0
-407 -1578 0
405 407 1578 0
-402 -1579 0
-408 -1579 0
402 408 1579 0
-396 -1580 0
-409 -1580 0
396 409 1580 0
1 -1581 0
334 -1581 0
-1 -334 1581 0
80 -1582 0
411 -1582 0
-80 -411 1582 0
337 -1583 0
1 -1583 0
-337 -1 1583 0
84 -1584 0
413 -1584 0
-84 -413 1584 0
-412 -1585 0
-414 -1585 0
412 414 1585 0
341 -1586 0
1 -1586 0
-341 -1 1586 0
88 -1587 0
416 -1587 0
-88 -416 1587 0
344 -1588 0
1 -1588 0
-344 -1 1588 0
92 -1589 0
418 -1589 0
-92 -418 1589 0
-417 -1590 0
-419 -1590 0
417 419 1590 0
-415 -1591 0
-420 -1591 0
415 420 1591 0
349 -1592 0
1 -1592 0
-349 -1 1592 0
100 -1593 0
422 -1593 0
-100 -422 1593 0
352 -1594 0
1 -1594 0
-352 -1 1594 0
104 -1595 0
424 -1595 0
-104 -424 1595 0
-423 -1596 0
-425 -1596 0
423 425 1596 0
356 -1597 0
1 -1597 0
-356 -1 1597 0
108 -1598 0
427 -1598 0
-108 -427 1598 0
359 -1599 0
1 -1599 0
-359 -1 1599 0
112 -1600 0
429 -1600 0
-112 -429 1600 0
-428 -1601 0
-430 -1601 0
428 430 1601 0
-426 -1602 0
-431 -1602 0
426 431 1602 0
-421 -1603 0
-432 -1603 0
421 432 1603 0
-410 -1604 0
1603 -1604 0
410 -1603 1604 0
28 -1605 0
435 -1605 0
-28 -435 1605 0
36 -1606 0
437 -1606 0
-36 -437 1606 0
-436 -1607 0
-438 -1607 0
436 438 1607 0
44 -1608 0
440 -1608 0
-44 -440 1608 0
52 -1609 0
442 -1609 0
-52 -442 1609 0
-441 -1610 0
-443 -1610 0
441 443 1610 0
-439 -1611 0
-444 -1611 0
439 444 1611 0
60 -1612 0
446 -1612 0
-60 -446 1612 0
448 -1613 0
2 -1613 0
-448 -2 1613 0
64 -1614 0
449 -1614 0
-64 -449 1614 0
-447 -1615 0
-450 -1615 0
447 450 1615 0
68 -1616 0
452 -1616 0
-68 -452 1616 0
72 -1617 0
454 -1617 0
-72 -454 1617 0
-453 -1618 0
-455 -1618 0
453 455 1618 0
-451 -1619 0
-456 -1619 0
451 456 1619 0
-445 -1620 0
1619 -1620 0
445 -1619 1620 0
80 -1621 0
459 -1621 0
-80 -459 1621 0
84 -1622 0
461 -1622 0
-84 -461 1622 0
-460 -1623 0
-462 -1623 0
460 462 1623 0
88 -1624 0
464 -1624 0
-88 -464 1624 0
92 -1625 0
466 -1625 0
-92 -466 1625 0
-465 -1626 0
-467 -1626 0
465 467 1626 0
-463 -1627 0
-468 -1627 0
463 468 1627 0
100 -1628 0
470 -1628 0
-100 -470 1628 0
104 -1629 0
472 -1629 0
-104 -472 1629 0
-471 -1630 0
-473 -1630 0
471 473 1630 0
108 -1631 0
475 -1631 0
-108 -475 1631 0
112 -1632 0
477 -1632 0
-112 -477 1632 0
-476 -1633 0
-478 -1633 0
476 478 1633 0
-474 -1634 0
-479 -1634 0
474 479 1634 0
-469 -1635 0
-480 -1635 0
469 480 1635 0
-458 -1636 0
1635 -1636 0
458 -1635 1636 0
-434 -1637 0
-482 -1637 0
434 482 1637 0
